molecule {
units angstrom
 O      0.0000000000         0.0000000000        -0.0685304104    
 H      0.0000000000        -0.8916195680         0.5648097613    
 H      0.0000000000         0.8916195680         0.5648097613    
}

set e_convergence 11
set basis         cc-pVDZ
energy('scf')

